NAME : B-n10-k5
COMMENT : (Another modified instance with 10 nodes)
TYPE : CVRP
DIMENSION : 10
EDGE_WEIGHT_TYPE : EUC_2D 
CAPACITY : 80
NODE_COORD_SECTION 
 1 42 53
 2 55 38
 3 85 82
 4 94 23
 5 70 45
 6 90 3
 7 20 40
 8 55 20
 9 65 95
 10 15 70
DEMAND_SECTION 
1 0 
2 12 
3 3 
4 2 
5 13 
6 17 
7 12 
8 1 
9 26 
10 13 
DEPOT_SECTION 
 1  
 -1  
EOF